data/lp_files/q3/28_0.lp
\ Model foo
\ LP format - for model browsing. Use MPS format to capture full model detail.
Minimize
  z
Subject To
 allocateEach[1]: x[1,1] + x[2,1] = 1
 allocateEach[2]: x[1,2] + x[2,2] = 1
 allocateEach[3]: x[1,3] + x[2,3] = 1
 allocateEach[4]: x[1,4] + x[2,4] = 1
 allocateEach[5]: x[1,5] + x[2,5] = 1
 allocateEach[6]: x[1,6] + x[2,6] = 1
 allocateEach[7]: x[1,7] + x[2,7] = 1
 allocateEach[8]: x[1,8] + x[2,8] = 1
 allocateAllCash: cashProportion[1] + cashProportion[2] = 1
 findWorstP[1,2]: z + 0.010094280580623 cashProportion[1]
   - 0.010094280580623 cashProportion[2] + 0.145559525972584 x[1,1]
   + 0.1880766357781681 x[1,2] + 0.00849938424888458 x[1,3]
   + 0.1752568994407769 x[1,4] + 0.0821068782427876 x[1,5]
   + 0.1712393757696889 x[1,6] + 0.0577190963600024 x[1,7]
   + 0.1614479236064846 x[1,8] - 0.145559525972584 x[2,1]
   - 0.1880766357781681 x[2,2] - 0.00849938424888458 x[2,3]
   - 0.1752568994407769 x[2,4] - 0.0821068782427876 x[2,5]
   - 0.1712393757696889 x[2,6] - 0.0577190963600024 x[2,7]
   - 0.1614479236064846 x[2,8] >= 0
 findWorstP[2,1]: z - 0.011388743366057 cashProportion[1]
   + 0.011388743366057 cashProportion[2] - 0.1498075302371136 x[1,1]
   - 0.0321390337790128 x[1,2] - 0.1322005329931895 x[1,3]
   - 0.2061590324123636 x[1,4] - 0.2034940664647063 x[1,5]
   - 0.0752568161629046 x[1,6] - 0.0791062114206319 x[1,7]
   - 0.1104480331640207 x[1,8] + 0.1498075302371136 x[2,1]
   + 0.0321390337790128 x[2,2] + 0.1322005329931895 x[2,3]
   + 0.2061590324123636 x[2,4] + 0.2034940664647063 x[2,5]
   + 0.0752568161629046 x[2,6] + 0.0791062114206319 x[2,7]
   + 0.1104480331640207 x[2,8] >= 0
Bounds
 z <= 1
 -infinity <= cashProportion[1] <= 1
 -infinity <= cashProportion[2] <= 1
Binaries
 x[1,1] x[1,2] x[1,3] x[1,4] x[1,5] x[1,6] x[1,7] x[1,8] x[2,1] x[2,2]
 x[2,3] x[2,4] x[2,5] x[2,6] x[2,7] x[2,8]
End
